
Gurobi 8.1.1 (win64) logging started 11/24/19 13:00:04

Changed value of parameter LogFile to logs/full/ip/full-06-30-2.log
   Prev: gurobi.log  Default: 
Changed value of parameter LogToConsole to 0
   Prev: 1  Min: 0  Max: 1  Default: 1
Changed value of parameter TimeLimit to 3600.0
   Prev: 1e+100  Min: 0.0  Max: 1e+100  Default: 1e+100
Optimize a model with 3629 rows, 1712 columns and 13830 nonzeros
Variable types: 0 continuous, 1712 integer (1696 binary)
Coefficient statistics:
  Matrix range     [1e+00, 5e+02]
  Objective range  [1e+00, 1e+00]
  Bounds range     [1e+00, 1e+00]
  RHS range        [1e+00, 6e+02]
Presolve removed 3 rows and 3 columns
Presolve time: 0.07s
Presolved: 3626 rows, 1709 columns, 13821 nonzeros
Variable types: 0 continuous, 1709 integer (1693 binary)

Root relaxation: objective 4.333333e+00, 1250 iterations, 0.09 seconds

    Nodes    |    Current Node    |     Objective Bounds      |     Work
 Expl Unexpl |  Obj  Depth IntInf | Incumbent    BestBd   Gap | It/Node Time

     0     0    4.33333    0  152          -    4.33333      -     -    0s
H    0     0                      16.0000000    4.33333  72.9%     -    0s
H    0     0                      15.0000000    4.33333  71.1%     -    0s
     0     0    6.00000    0   23   15.00000    6.00000  60.0%     -    0s
     0     0    6.00000    0   36   15.00000    6.00000  60.0%     -    0s
H    0     0                      14.0000000    6.00000  57.1%     -    1s
H    0     0                      13.0000000    6.00000  53.8%     -    1s
     0     0    6.00000    0   19   13.00000    6.00000  53.8%     -    1s
H    0     0                      12.0000000    6.00000  50.0%     -    1s
     0     0    6.00000    0    6   12.00000    6.00000  50.0%     -    1s
H    0     0                      11.0000000    6.00000  45.5%     -    1s
H    0     0                       7.0000000    6.00000  14.3%     -    1s
     0     0    6.00000    0   22    7.00000    6.00000  14.3%     -    1s
     0     0    6.00000    0    7    7.00000    6.00000  14.3%     -    1s
H    0     0                       6.0000000    6.00000  0.00%     -    1s

Explored 1 nodes (9930 simplex iterations) in 1.71 seconds
Thread count was 4 (of 4 available processors)

Solution count 8: 6 7 11 ... 16

Optimal solution found (tolerance 1.00e-04)
Best objective 6.000000000000e+00, best bound 6.000000000000e+00, gap 0.0000%
